c
c generated by mike
c
p cnf 18 42
2 0
-8 -4 0
8 4 0
-10 0
-1 10 0
-10 -10 10 0
-11 -13 10 0
-12 -16 10 0
-2 11 0
-10 -11 11 0
-11 -14 11 0
-12 -17 11 0
-3 12 0
-10 -12 12 0
-11 -15 12 0
-12 -18 12 0
-14 0
-4 13 0
-13 -10 13 0
-14 -13 13 0
-15 -16 13 0
-5 14 0
-13 -11 14 0
-14 -14 14 0
-15 -17 14 0
-6 15 0
-13 -12 15 0
-14 -15 15 0
-15 -18 15 0
-18 0
-7 16 0
-16 -10 16 0
-17 -13 16 0
-18 -16 16 0
-8 17 0
-16 -11 17 0
-17 -14 17 0
-18 -17 17 0
-9 18 0
-16 -12 18 0
-17 -15 18 0
-18 -18 18 0